NAME : TS225B.158142.tour
COMMENT : Cost = 0_158142
COMMENT : Found by LKH [Keld Helsgaun] Sun Sep 17 16:56:29 2017
TYPE : TOUR
DIMENSION : 225
TOUR_SECTION
1
128
129
130
26
152
153
154
55
56
159
160
57
58
59
60
190
88
211
212
213
84
83
81
79
76
180
179
178
177
176
51
155
52
53
54
181
182
183
184
185
82
206
207
209
108
107
106
105
104
103
102
101
205
204
203
202
201
77
78
80
208
110
112
113
114
115
116
117
118
119
120
220
219
218
217
216
94
93
195
194
193
192
191
170
169
168
167
166
45
46
47
48
172
174
175
75
74
73
72
71
70
69
68
67
66
65
64
63
165
164
163
162
161
37
140
139
138
137
17
18
141
142
143
144
145
44
43
42
41
40
39
38
36
35
32
135
134
133
132
131
3
4
5
6
7
8
9
10
11
12
13
136
14
15
16
19
20
21
22
23
24
25
146
147
148
150
149
49
50
171
173
196
197
198
199
99
200
100
221
222
223
224
225
125
124
123
122
121
98
97
96
95
92
91
90
89
214
215
111
109
210
85
86
87
189
188
187
186
62
61
158
157
156
34
33
31
30
29
28
27
151
127
126
2
-1
EOF
